(set-info :smt-lib-version 2.6)
(set-logic QF_NIA)
(set-info :source |
Generated by: Cristina Borralleras, Daniel Larraz, Albert Oliveras, Enric Rodriguez-Carbonell, Albert Rubio
Generated on: 2017-04-27
Generator: VeryMax
Application: Termination proving
Target solver: barcelogic
|)
(set-info :license "https://creativecommons.org/licenses/by/4.0/")
(set-info :category "industrial")
(set-info :status unknown)
(declare-fun Nl57__const_429496^01 () Int)
(declare-fun Nl57__const_53^01 () Int)
(declare-fun Nl57__const_65536^01 () Int)
(declare-fun Nl57block_compress^01 () Int)
(declare-fun Nl57count^01 () Int)
(declare-fun Nl57hsize^01 () Int)
(declare-fun Nl57i3^01 () Int)
(declare-fun Nl57__const_429496^02 () Int)
(declare-fun Nl57__const_53^02 () Int)
(declare-fun Nl57__const_65536^02 () Int)
(declare-fun Nl57block_compress^02 () Int)
(declare-fun Nl57count^02 () Int)
(declare-fun Nl57hsize^02 () Int)
(declare-fun Nl57i3^02 () Int)
(declare-fun Nl57__const_429496^03 () Int)
(declare-fun Nl57__const_53^03 () Int)
(declare-fun Nl57__const_65536^03 () Int)
(declare-fun Nl57block_compress^03 () Int)
(declare-fun Nl57count^03 () Int)
(declare-fun Nl57hsize^03 () Int)
(declare-fun Nl57i3^03 () Int)
(declare-fun lam0n0 () Int)
(declare-fun lam0n1 () Int)
(declare-fun lam0n2 () Int)
(declare-fun lam0n3 () Int)
(declare-fun lam0n6 () Int)
(declare-fun lam0n7 () Int)
(declare-fun lam0n8 () Int)
(declare-fun Nl57CT1 () Int)
(declare-fun Nl57CT2 () Int)
(declare-fun Nl57CT3 () Int)
(declare-fun lam0n4 () Int)
(declare-fun lam0n5 () Int)
(declare-fun lam1n0 () Int)
(declare-fun lam1n1 () Int)
(declare-fun lam1n2 () Int)
(declare-fun lam1n3 () Int)
(declare-fun lam1n6 () Int)
(declare-fun lam1n7 () Int)
(declare-fun lam1n8 () Int)
(declare-fun lam1n4 () Int)
(declare-fun lam1n5 () Int)
(declare-fun lam2n0 () Int)
(declare-fun lam2n1 () Int)
(declare-fun lam2n2 () Int)
(declare-fun lam2n3 () Int)
(declare-fun lam2n6 () Int)
(declare-fun lam2n7 () Int)
(declare-fun lam2n8 () Int)
(declare-fun lam2n4 () Int)
(declare-fun lam2n5 () Int)
(declare-fun lam3n0 () Int)
(declare-fun lam3n1 () Int)
(declare-fun lam3n2 () Int)
(declare-fun lam3n3 () Int)
(declare-fun lam3n6 () Int)
(declare-fun lam3n7 () Int)
(declare-fun lam3n8 () Int)
(declare-fun lam3n4 () Int)
(declare-fun lam3n5 () Int)
(declare-fun lam4n0 () Int)
(declare-fun lam4n1 () Int)
(declare-fun lam4n2 () Int)
(declare-fun lam4n3 () Int)
(declare-fun lam4n4 () Int)
(declare-fun lam4n5 () Int)
(declare-fun lam5n0 () Int)
(declare-fun lam5n1 () Int)
(declare-fun lam5n2 () Int)
(declare-fun lam5n3 () Int)
(declare-fun lam5n4 () Int)
(declare-fun lam5n5 () Int)
(declare-fun lam6n0 () Int)
(declare-fun lam6n1 () Int)
(declare-fun lam6n2 () Int)
(declare-fun lam6n3 () Int)
(declare-fun lam6n4 () Int)
(declare-fun lam6n5 () Int)
(declare-fun __const_53^0 () Int)
(declare-fun __const_65536^0 () Int)
(declare-fun hsize^0 () Int)
(declare-fun count^0 () Int)
(declare-fun __const_429496^0 () Int)
(declare-fun undef689 () Int)
(declare-fun block_compress^0 () Int)
(declare-fun i3^0 () Int)
(declare-fun lam7n0 () Int)
(declare-fun lam7n1 () Int)
(declare-fun lam7n2 () Int)
(declare-fun lam7n5 () Int)
(declare-fun lam7n6 () Int)
(declare-fun lam7n7 () Int)
(declare-fun lam7n3 () Int)
(declare-fun lam7n4 () Int)
(declare-fun lam8n0 () Int)
(declare-fun lam8n1 () Int)
(declare-fun lam8n2 () Int)
(declare-fun lam8n5 () Int)
(declare-fun lam8n6 () Int)
(declare-fun lam8n7 () Int)
(declare-fun lam8n3 () Int)
(declare-fun lam8n4 () Int)
(assert ( and ( <= ( - 1 ) Nl57__const_429496^01 ) ( <= Nl57__const_429496^01 1 ) ( <= ( - 1 ) Nl57__const_53^01 ) ( <= Nl57__const_53^01 1 ) ( <= ( - 1 ) Nl57__const_65536^01 ) ( <= Nl57__const_65536^01 1 ) ( <= ( - 1 ) Nl57block_compress^01 ) ( <= Nl57block_compress^01 1 ) ( <= ( - 1 ) Nl57count^01 ) ( <= Nl57count^01 1 ) ( <= ( - 1 ) Nl57hsize^01 ) ( <= Nl57hsize^01 1 ) ( <= ( - 1 ) Nl57i3^01 ) ( <= Nl57i3^01 1 ) ( <= ( - 1 ) Nl57__const_429496^02 ) ( <= Nl57__const_429496^02 1 ) ( <= ( - 1 ) Nl57__const_53^02 ) ( <= Nl57__const_53^02 1 ) ( <= ( - 1 ) Nl57__const_65536^02 ) ( <= Nl57__const_65536^02 1 ) ( <= ( - 1 ) Nl57block_compress^02 ) ( <= Nl57block_compress^02 1 ) ( <= ( - 1 ) Nl57count^02 ) ( <= Nl57count^02 1 ) ( <= ( - 1 ) Nl57hsize^02 ) ( <= Nl57hsize^02 1 ) ( <= ( - 1 ) Nl57i3^02 ) ( <= Nl57i3^02 1 ) ( <= ( - 1 ) Nl57__const_429496^03 ) ( <= Nl57__const_429496^03 1 ) ( <= ( - 1 ) Nl57__const_53^03 ) ( <= Nl57__const_53^03 1 ) ( <= ( - 1 ) Nl57__const_65536^03 ) ( <= Nl57__const_65536^03 1 ) ( <= ( - 1 ) Nl57block_compress^03 ) ( <= Nl57block_compress^03 1 ) ( <= ( - 1 ) Nl57count^03 ) ( <= Nl57count^03 1 ) ( <= ( - 1 ) Nl57hsize^03 ) ( <= Nl57hsize^03 1 ) ( <= ( - 1 ) Nl57i3^03 ) ( <= Nl57i3^03 1 ) ))
(assert ( or ( and ( >= lam0n0 0 ) ( >= lam0n1 0 ) ( >= lam0n2 0 ) ( >= lam0n3 0 ) ( >= lam0n6 0 ) ( >= lam0n7 0 ) ( >= lam0n8 0 ) ( > ( + ( * 1 lam0n1 ) ( * 1 lam0n2 ) ( * 1 lam0n3 ) ( * Nl57CT1 lam0n6 ) ( * Nl57CT2 lam0n7 ) ( * Nl57CT3 lam0n8 ) ( - 1 ) ) 0 ) ( = ( + ( * 1 lam0n4 ) ( * Nl57__const_429496^01 lam0n6 ) ( * Nl57__const_429496^02 lam0n7 ) ( * Nl57__const_429496^03 lam0n8 ) ) 0 ) ( = ( + ( * 1 lam0n0 ) ( * Nl57__const_53^01 lam0n6 ) ( * Nl57__const_53^02 lam0n7 ) ( * Nl57__const_53^03 lam0n8 ) ) 0 ) ( = ( + ( * ( - 1 ) lam0n1 ) ( * Nl57__const_65536^01 lam0n6 ) ( * Nl57__const_65536^02 lam0n7 ) ( * Nl57__const_65536^03 lam0n8 ) ) 0 ) ( = ( + ( * 1 lam0n5 ) ( * Nl57block_compress^01 lam0n6 ) ( * Nl57block_compress^02 lam0n7 ) ( * Nl57block_compress^03 lam0n8 ) ) 0 ) ( = ( + ( * ( - 1 ) lam0n2 ) ( * ( - 1 ) lam0n3 ) ( * Nl57count^01 lam0n6 ) ( * Nl57count^02 lam0n7 ) ( * Nl57count^03 lam0n8 ) ) 0 ) ( = ( + ( * 1 lam0n1 ) ( * Nl57hsize^01 lam0n6 ) ( * Nl57hsize^02 lam0n7 ) ( * Nl57hsize^03 lam0n8 ) ) 0 ) ( = ( + ( * 1 lam0n3 ) ( * Nl57i3^01 lam0n6 ) ( * Nl57i3^02 lam0n7 ) ( * Nl57i3^03 lam0n8 ) ) 0 ) ( = ( * ( - 1 ) lam0n4 ) 0 ) ) ( and ( >= lam1n0 0 ) ( >= lam1n1 0 ) ( >= lam1n2 0 ) ( >= lam1n3 0 ) ( >= lam1n6 0 ) ( >= lam1n7 0 ) ( >= lam1n8 0 ) ( > ( + ( * 1 lam1n1 ) ( * 1 lam1n2 ) ( * 1 lam1n3 ) ( * Nl57CT1 lam1n6 ) ( * Nl57CT2 lam1n7 ) ( * Nl57CT3 lam1n8 ) ( - 1 ( + Nl57CT1 ( * Nl57i3^01 1 ) ) ) ) 0 ) ( = ( + ( * 1 lam1n4 ) ( * Nl57__const_429496^01 lam1n6 ) ( * Nl57__const_429496^02 lam1n7 ) ( * Nl57__const_429496^03 lam1n8 ) ( - ( + 0 Nl57__const_429496^01 ) ) ) 0 ) ( = ( + ( * 1 lam1n0 ) ( * Nl57__const_53^01 lam1n6 ) ( * Nl57__const_53^02 lam1n7 ) ( * Nl57__const_53^03 lam1n8 ) ( - ( + 0 Nl57__const_53^01 ) ) ) 0 ) ( = ( + ( * ( - 1 ) lam1n1 ) ( * Nl57__const_65536^01 lam1n6 ) ( * Nl57__const_65536^02 lam1n7 ) ( * Nl57__const_65536^03 lam1n8 ) ( - ( + 0 Nl57__const_65536^01 ) ) ) 0 ) ( = ( + ( * 1 lam1n5 ) ( * Nl57block_compress^01 lam1n6 ) ( * Nl57block_compress^02 lam1n7 ) ( * Nl57block_compress^03 lam1n8 ) ( - ( + 0 Nl57block_compress^01 ) ) ) 0 ) ( = ( + ( * ( - 1 ) lam1n2 ) ( * ( - 1 ) lam1n3 ) ( * Nl57count^01 lam1n6 ) ( * Nl57count^02 lam1n7 ) ( * Nl57count^03 lam1n8 ) ( - ( + 0 Nl57count^01 ) ) ) 0 ) ( = ( + ( * 1 lam1n1 ) ( * Nl57hsize^01 lam1n6 ) ( * Nl57hsize^02 lam1n7 ) ( * Nl57hsize^03 lam1n8 ) ( - ( + 0 Nl57hsize^01 ) ) ) 0 ) ( = ( + ( * 1 lam1n3 ) ( * Nl57i3^01 lam1n6 ) ( * Nl57i3^02 lam1n7 ) ( * Nl57i3^03 lam1n8 ) ( - ( + 0 ( * Nl57i3^01 1 ) ) ) ) 0 ) ( = ( * ( - 1 ) lam1n4 ) 0 ) ) ))
(assert ( or ( and ( >= lam0n0 0 ) ( >= lam0n1 0 ) ( >= lam0n2 0 ) ( >= lam0n3 0 ) ( >= lam0n6 0 ) ( >= lam0n7 0 ) ( >= lam0n8 0 ) ( > ( + ( * 1 lam0n1 ) ( * 1 lam0n2 ) ( * 1 lam0n3 ) ( * Nl57CT1 lam0n6 ) ( * Nl57CT2 lam0n7 ) ( * Nl57CT3 lam0n8 ) ( - 1 ) ) 0 ) ( = ( + ( * 1 lam0n4 ) ( * Nl57__const_429496^01 lam0n6 ) ( * Nl57__const_429496^02 lam0n7 ) ( * Nl57__const_429496^03 lam0n8 ) ) 0 ) ( = ( + ( * 1 lam0n0 ) ( * Nl57__const_53^01 lam0n6 ) ( * Nl57__const_53^02 lam0n7 ) ( * Nl57__const_53^03 lam0n8 ) ) 0 ) ( = ( + ( * ( - 1 ) lam0n1 ) ( * Nl57__const_65536^01 lam0n6 ) ( * Nl57__const_65536^02 lam0n7 ) ( * Nl57__const_65536^03 lam0n8 ) ) 0 ) ( = ( + ( * 1 lam0n5 ) ( * Nl57block_compress^01 lam0n6 ) ( * Nl57block_compress^02 lam0n7 ) ( * Nl57block_compress^03 lam0n8 ) ) 0 ) ( = ( + ( * ( - 1 ) lam0n2 ) ( * ( - 1 ) lam0n3 ) ( * Nl57count^01 lam0n6 ) ( * Nl57count^02 lam0n7 ) ( * Nl57count^03 lam0n8 ) ) 0 ) ( = ( + ( * 1 lam0n1 ) ( * Nl57hsize^01 lam0n6 ) ( * Nl57hsize^02 lam0n7 ) ( * Nl57hsize^03 lam0n8 ) ) 0 ) ( = ( + ( * 1 lam0n3 ) ( * Nl57i3^01 lam0n6 ) ( * Nl57i3^02 lam0n7 ) ( * Nl57i3^03 lam0n8 ) ) 0 ) ( = ( * ( - 1 ) lam0n4 ) 0 ) ) ( and ( >= lam2n0 0 ) ( >= lam2n1 0 ) ( >= lam2n2 0 ) ( >= lam2n3 0 ) ( >= lam2n6 0 ) ( >= lam2n7 0 ) ( >= lam2n8 0 ) ( > ( + ( * 1 lam2n1 ) ( * 1 lam2n2 ) ( * 1 lam2n3 ) ( * Nl57CT1 lam2n6 ) ( * Nl57CT2 lam2n7 ) ( * Nl57CT3 lam2n8 ) ( - 1 ( + Nl57CT2 ( * Nl57i3^02 1 ) ) ) ) 0 ) ( = ( + ( * 1 lam2n4 ) ( * Nl57__const_429496^01 lam2n6 ) ( * Nl57__const_429496^02 lam2n7 ) ( * Nl57__const_429496^03 lam2n8 ) ( - ( + 0 Nl57__const_429496^02 ) ) ) 0 ) ( = ( + ( * 1 lam2n0 ) ( * Nl57__const_53^01 lam2n6 ) ( * Nl57__const_53^02 lam2n7 ) ( * Nl57__const_53^03 lam2n8 ) ( - ( + 0 Nl57__const_53^02 ) ) ) 0 ) ( = ( + ( * ( - 1 ) lam2n1 ) ( * Nl57__const_65536^01 lam2n6 ) ( * Nl57__const_65536^02 lam2n7 ) ( * Nl57__const_65536^03 lam2n8 ) ( - ( + 0 Nl57__const_65536^02 ) ) ) 0 ) ( = ( + ( * 1 lam2n5 ) ( * Nl57block_compress^01 lam2n6 ) ( * Nl57block_compress^02 lam2n7 ) ( * Nl57block_compress^03 lam2n8 ) ( - ( + 0 Nl57block_compress^02 ) ) ) 0 ) ( = ( + ( * ( - 1 ) lam2n2 ) ( * ( - 1 ) lam2n3 ) ( * Nl57count^01 lam2n6 ) ( * Nl57count^02 lam2n7 ) ( * Nl57count^03 lam2n8 ) ( - ( + 0 Nl57count^02 ) ) ) 0 ) ( = ( + ( * 1 lam2n1 ) ( * Nl57hsize^01 lam2n6 ) ( * Nl57hsize^02 lam2n7 ) ( * Nl57hsize^03 lam2n8 ) ( - ( + 0 Nl57hsize^02 ) ) ) 0 ) ( = ( + ( * 1 lam2n3 ) ( * Nl57i3^01 lam2n6 ) ( * Nl57i3^02 lam2n7 ) ( * Nl57i3^03 lam2n8 ) ( - ( + 0 ( * Nl57i3^02 1 ) ) ) ) 0 ) ( = ( * ( - 1 ) lam2n4 ) 0 ) ) ))
(assert ( or ( and ( >= lam0n0 0 ) ( >= lam0n1 0 ) ( >= lam0n2 0 ) ( >= lam0n3 0 ) ( >= lam0n6 0 ) ( >= lam0n7 0 ) ( >= lam0n8 0 ) ( > ( + ( * 1 lam0n1 ) ( * 1 lam0n2 ) ( * 1 lam0n3 ) ( * Nl57CT1 lam0n6 ) ( * Nl57CT2 lam0n7 ) ( * Nl57CT3 lam0n8 ) ( - 1 ) ) 0 ) ( = ( + ( * 1 lam0n4 ) ( * Nl57__const_429496^01 lam0n6 ) ( * Nl57__const_429496^02 lam0n7 ) ( * Nl57__const_429496^03 lam0n8 ) ) 0 ) ( = ( + ( * 1 lam0n0 ) ( * Nl57__const_53^01 lam0n6 ) ( * Nl57__const_53^02 lam0n7 ) ( * Nl57__const_53^03 lam0n8 ) ) 0 ) ( = ( + ( * ( - 1 ) lam0n1 ) ( * Nl57__const_65536^01 lam0n6 ) ( * Nl57__const_65536^02 lam0n7 ) ( * Nl57__const_65536^03 lam0n8 ) ) 0 ) ( = ( + ( * 1 lam0n5 ) ( * Nl57block_compress^01 lam0n6 ) ( * Nl57block_compress^02 lam0n7 ) ( * Nl57block_compress^03 lam0n8 ) ) 0 ) ( = ( + ( * ( - 1 ) lam0n2 ) ( * ( - 1 ) lam0n3 ) ( * Nl57count^01 lam0n6 ) ( * Nl57count^02 lam0n7 ) ( * Nl57count^03 lam0n8 ) ) 0 ) ( = ( + ( * 1 lam0n1 ) ( * Nl57hsize^01 lam0n6 ) ( * Nl57hsize^02 lam0n7 ) ( * Nl57hsize^03 lam0n8 ) ) 0 ) ( = ( + ( * 1 lam0n3 ) ( * Nl57i3^01 lam0n6 ) ( * Nl57i3^02 lam0n7 ) ( * Nl57i3^03 lam0n8 ) ) 0 ) ( = ( * ( - 1 ) lam0n4 ) 0 ) ) ( and ( >= lam3n0 0 ) ( >= lam3n1 0 ) ( >= lam3n2 0 ) ( >= lam3n3 0 ) ( >= lam3n6 0 ) ( >= lam3n7 0 ) ( >= lam3n8 0 ) ( > ( + ( * 1 lam3n1 ) ( * 1 lam3n2 ) ( * 1 lam3n3 ) ( * Nl57CT1 lam3n6 ) ( * Nl57CT2 lam3n7 ) ( * Nl57CT3 lam3n8 ) ( - 1 ( + Nl57CT3 ( * Nl57i3^03 1 ) ) ) ) 0 ) ( = ( + ( * 1 lam3n4 ) ( * Nl57__const_429496^01 lam3n6 ) ( * Nl57__const_429496^02 lam3n7 ) ( * Nl57__const_429496^03 lam3n8 ) ( - ( + 0 Nl57__const_429496^03 ) ) ) 0 ) ( = ( + ( * 1 lam3n0 ) ( * Nl57__const_53^01 lam3n6 ) ( * Nl57__const_53^02 lam3n7 ) ( * Nl57__const_53^03 lam3n8 ) ( - ( + 0 Nl57__const_53^03 ) ) ) 0 ) ( = ( + ( * ( - 1 ) lam3n1 ) ( * Nl57__const_65536^01 lam3n6 ) ( * Nl57__const_65536^02 lam3n7 ) ( * Nl57__const_65536^03 lam3n8 ) ( - ( + 0 Nl57__const_65536^03 ) ) ) 0 ) ( = ( + ( * 1 lam3n5 ) ( * Nl57block_compress^01 lam3n6 ) ( * Nl57block_compress^02 lam3n7 ) ( * Nl57block_compress^03 lam3n8 ) ( - ( + 0 Nl57block_compress^03 ) ) ) 0 ) ( = ( + ( * ( - 1 ) lam3n2 ) ( * ( - 1 ) lam3n3 ) ( * Nl57count^01 lam3n6 ) ( * Nl57count^02 lam3n7 ) ( * Nl57count^03 lam3n8 ) ( - ( + 0 Nl57count^03 ) ) ) 0 ) ( = ( + ( * 1 lam3n1 ) ( * Nl57hsize^01 lam3n6 ) ( * Nl57hsize^02 lam3n7 ) ( * Nl57hsize^03 lam3n8 ) ( - ( + 0 Nl57hsize^03 ) ) ) 0 ) ( = ( + ( * 1 lam3n3 ) ( * Nl57i3^01 lam3n6 ) ( * Nl57i3^02 lam3n7 ) ( * Nl57i3^03 lam3n8 ) ( - ( + 0 ( * Nl57i3^03 1 ) ) ) ) 0 ) ( = ( * ( - 1 ) lam3n4 ) 0 ) ) ))
(assert ( and ( <= __const_53^0 0 ) ( not ( <= ( + __const_65536^0 ( * ( - 1 ) hsize^0 ) ) 0 ) ) ( <= ( + 1 ( * ( - 1 ) count^0 ) ) 0 ) ( = ( + __const_429496^0 ( * ( - 1 ) undef689 ) ) 0 ) ( = block_compress^0 0 ) ( = i3^0 0 ) ( <= ( + Nl57CT1 ( * ( + 0 Nl57__const_429496^01 ) __const_429496^0 ) ( * ( + 0 Nl57__const_53^01 ) __const_53^0 ) ( * ( + 0 Nl57__const_65536^01 ) __const_65536^0 ) ( * ( + 0 Nl57block_compress^01 ) block_compress^0 ) ( * ( + 0 Nl57count^01 ) count^0 ) ( * ( + 0 Nl57hsize^01 ) hsize^0 ) ( * ( + 0 Nl57i3^01 ) i3^0 ) ) 0 ) ( <= ( + Nl57CT2 ( * ( + 0 Nl57__const_429496^02 ) __const_429496^0 ) ( * ( + 0 Nl57__const_53^02 ) __const_53^0 ) ( * ( + 0 Nl57__const_65536^02 ) __const_65536^0 ) ( * ( + 0 Nl57block_compress^02 ) block_compress^0 ) ( * ( + 0 Nl57count^02 ) count^0 ) ( * ( + 0 Nl57hsize^02 ) hsize^0 ) ( * ( + 0 Nl57i3^02 ) i3^0 ) ) 0 ) ( <= ( + Nl57CT3 ( * ( + 0 Nl57__const_429496^03 ) __const_429496^0 ) ( * ( + 0 Nl57__const_53^03 ) __const_53^0 ) ( * ( + 0 Nl57__const_65536^03 ) __const_65536^0 ) ( * ( + 0 Nl57block_compress^03 ) block_compress^0 ) ( * ( + 0 Nl57count^03 ) count^0 ) ( * ( + 0 Nl57hsize^03 ) hsize^0 ) ( * ( + 0 Nl57i3^03 ) i3^0 ) ) 0 ) ))
(assert ( or ( or ( and ( >= lam7n0 0 ) ( >= lam7n1 0 ) ( >= lam7n2 0 ) ( >= lam7n5 0 ) ( >= lam7n6 0 ) ( >= lam7n7 0 ) ( > ( + ( * 1 lam7n2 ) ( * Nl57CT1 lam7n5 ) ( * Nl57CT2 lam7n6 ) ( * Nl57CT3 lam7n7 ) ( - 1 ) ) 0 ) ( = ( + ( * 1 lam7n3 ) ( * Nl57__const_429496^01 lam7n5 ) ( * Nl57__const_429496^02 lam7n6 ) ( * Nl57__const_429496^03 lam7n7 ) ) 0 ) ( = ( + ( * 1 lam7n0 ) ( * Nl57__const_53^01 lam7n5 ) ( * Nl57__const_53^02 lam7n6 ) ( * Nl57__const_53^03 lam7n7 ) ) 0 ) ( = ( + ( * Nl57__const_65536^01 lam7n5 ) ( * Nl57__const_65536^02 lam7n6 ) ( * Nl57__const_65536^03 lam7n7 ) ) 0 ) ( = ( + ( * 1 lam7n4 ) ( * Nl57block_compress^01 lam7n5 ) ( * Nl57block_compress^02 lam7n6 ) ( * Nl57block_compress^03 lam7n7 ) ) 0 ) ( = ( + ( * 1 lam7n1 ) ( * ( - 1 ) lam7n2 ) ( * Nl57count^01 lam7n5 ) ( * Nl57count^02 lam7n6 ) ( * Nl57count^03 lam7n7 ) ) 0 ) ( = ( + ( * Nl57hsize^01 lam7n5 ) ( * Nl57hsize^02 lam7n6 ) ( * Nl57hsize^03 lam7n7 ) ) 0 ) ( = ( + ( * ( - 1 ) lam7n1 ) ( * Nl57i3^01 lam7n5 ) ( * Nl57i3^02 lam7n6 ) ( * Nl57i3^03 lam7n7 ) ) 0 ) ( = ( * ( - 1 ) lam7n3 ) 0 ) ) ( and ( >= lam8n0 0 ) ( >= lam8n1 0 ) ( >= lam8n2 0 ) ( >= lam8n5 0 ) ( >= lam8n6 0 ) ( >= lam8n7 0 ) ( > ( + ( * 1 lam8n2 ) ( * Nl57CT1 lam8n5 ) ( * Nl57CT2 lam8n6 ) ( * Nl57CT3 lam8n7 ) 1 ) 0 ) ( = ( + ( * 1 lam8n3 ) ( * Nl57__const_429496^01 lam8n5 ) ( * Nl57__const_429496^02 lam8n6 ) ( * Nl57__const_429496^03 lam8n7 ) ) 0 ) ( = ( + ( * 1 lam8n0 ) ( * Nl57__const_53^01 lam8n5 ) ( * Nl57__const_53^02 lam8n6 ) ( * Nl57__const_53^03 lam8n7 ) ) 0 ) ( = ( + ( * Nl57__const_65536^01 lam8n5 ) ( * Nl57__const_65536^02 lam8n6 ) ( * Nl57__const_65536^03 lam8n7 ) ( - 1 ) ) 0 ) ( = ( + ( * 1 lam8n4 ) ( * Nl57block_compress^01 lam8n5 ) ( * Nl57block_compress^02 lam8n6 ) ( * Nl57block_compress^03 lam8n7 ) ) 0 ) ( = ( + ( * 1 lam8n1 ) ( * ( - 1 ) lam8n2 ) ( * Nl57count^01 lam8n5 ) ( * Nl57count^02 lam8n6 ) ( * Nl57count^03 lam8n7 ) ) 0 ) ( = ( + ( * Nl57hsize^01 lam8n5 ) ( * Nl57hsize^02 lam8n6 ) ( * Nl57hsize^03 lam8n7 ) 1 ) 0 ) ( = ( + ( * ( - 1 ) lam8n1 ) ( * Nl57i3^01 lam8n5 ) ( * Nl57i3^02 lam8n6 ) ( * Nl57i3^03 lam8n7 ) ) 0 ) ( = ( * ( - 1 ) lam8n3 ) 0 ) ) ) ( and ( and ( <= __const_53^0 0 ) ( not ( <= ( + __const_65536^0 ( * ( - 1 ) hsize^0 ) ) 0 ) ) ( <= ( + 1 ( * ( - 1 ) count^0 ) ) 0 ) ( = ( + __const_429496^0 ( * ( - 1 ) undef689 ) ) 0 ) ( = block_compress^0 0 ) ( = i3^0 0 ) ( <= ( + Nl57CT1 ( * ( + 0 Nl57__const_429496^01 ) __const_429496^0 ) ( * ( + 0 Nl57__const_53^01 ) __const_53^0 ) ( * ( + 0 Nl57__const_65536^01 ) __const_65536^0 ) ( * ( + 0 Nl57block_compress^01 ) block_compress^0 ) ( * ( + 0 Nl57count^01 ) count^0 ) ( * ( + 0 Nl57hsize^01 ) hsize^0 ) ( * ( + 0 Nl57i3^01 ) i3^0 ) ) 0 ) ( <= ( + Nl57CT2 ( * ( + 0 Nl57__const_429496^02 ) __const_429496^0 ) ( * ( + 0 Nl57__const_53^02 ) __const_53^0 ) ( * ( + 0 Nl57__const_65536^02 ) __const_65536^0 ) ( * ( + 0 Nl57block_compress^02 ) block_compress^0 ) ( * ( + 0 Nl57count^02 ) count^0 ) ( * ( + 0 Nl57hsize^02 ) hsize^0 ) ( * ( + 0 Nl57i3^02 ) i3^0 ) ) 0 ) ( <= ( + Nl57CT3 ( * ( + 0 Nl57__const_429496^03 ) __const_429496^0 ) ( * ( + 0 Nl57__const_53^03 ) __const_53^0 ) ( * ( + 0 Nl57__const_65536^03 ) __const_65536^0 ) ( * ( + 0 Nl57block_compress^03 ) block_compress^0 ) ( * ( + 0 Nl57count^03 ) count^0 ) ( * ( + 0 Nl57hsize^03 ) hsize^0 ) ( * ( + 0 Nl57i3^03 ) i3^0 ) ) 0 ) ) ( and ( >= lam0n0 0 ) ( >= lam0n1 0 ) ( >= lam0n2 0 ) ( >= lam0n3 0 ) ( >= lam0n6 0 ) ( >= lam0n7 0 ) ( >= lam0n8 0 ) ( > ( + ( * 1 lam0n1 ) ( * 1 lam0n2 ) ( * 1 lam0n3 ) ( * Nl57CT1 lam0n6 ) ( * Nl57CT2 lam0n7 ) ( * Nl57CT3 lam0n8 ) ( - 1 ) ) 0 ) ( = ( + ( * 1 lam0n4 ) ( * Nl57__const_429496^01 lam0n6 ) ( * Nl57__const_429496^02 lam0n7 ) ( * Nl57__const_429496^03 lam0n8 ) ) 0 ) ( = ( + ( * 1 lam0n0 ) ( * Nl57__const_53^01 lam0n6 ) ( * Nl57__const_53^02 lam0n7 ) ( * Nl57__const_53^03 lam0n8 ) ) 0 ) ( = ( + ( * ( - 1 ) lam0n1 ) ( * Nl57__const_65536^01 lam0n6 ) ( * Nl57__const_65536^02 lam0n7 ) ( * Nl57__const_65536^03 lam0n8 ) ) 0 ) ( = ( + ( * 1 lam0n5 ) ( * Nl57block_compress^01 lam0n6 ) ( * Nl57block_compress^02 lam0n7 ) ( * Nl57block_compress^03 lam0n8 ) ) 0 ) ( = ( + ( * ( - 1 ) lam0n2 ) ( * ( - 1 ) lam0n3 ) ( * Nl57count^01 lam0n6 ) ( * Nl57count^02 lam0n7 ) ( * Nl57count^03 lam0n8 ) ) 0 ) ( = ( + ( * 1 lam0n1 ) ( * Nl57hsize^01 lam0n6 ) ( * Nl57hsize^02 lam0n7 ) ( * Nl57hsize^03 lam0n8 ) ) 0 ) ( = ( + ( * 1 lam0n3 ) ( * Nl57i3^01 lam0n6 ) ( * Nl57i3^02 lam0n7 ) ( * Nl57i3^03 lam0n8 ) ) 0 ) ( = ( * ( - 1 ) lam0n4 ) 0 ) ) ) ))
(check-sat)
(exit)
